c random clauses
p cnf 8 64
-8 -7 -6 -3 0
-8 -7 -3 4 0
-8 -7 -1 6 0
-8 -6 -4 2 0
-8 -5 -2 1 0
-8 -5 2 3 0
-8 -4 -3 6 0
-8 -4 1 3 0
-8 -4 6 7 0
-8 -2 -1 4 0
-8 -2 -1 6 0
-8 -2 4 6 0
-8 -1 2 7 0
-8 2 3 4 0
-8 2 5 7 0
-8 3 5 7 0
-7 -6 -5 4 0
-7 -6 -3 2 0
-7 -6 -2 -1 0
-7 -5 -4 8 0
-7 -5 -2 8 0
-7 -5 3 4 0
-7 -4 -3 -1 0
-7 -4 -3 8 0
-7 -4 -1 5 0
-7 -3 2 4 0
-7 -1 6 8 0
-6 -5 -3 8 0
-6 -5 -2 3 0
-6 -3 -2 4 0
-6 -3 1 4 0
-6 -2 -1 4 0
-6 -2 3 5 0
-6 -2 3 7 0
-6 -1 4 5 0
-5 -4 2 6 0
-5 -3 6 7 0
-5 -2 3 8 0
-5 -2 6 7 0
-5 -2 7 8 0
-5 -1 2 8 0
-5 2 4 8 0
-5 4 7 8 0
-4 -3 2 7 0
-4 -2 -1 6 0
-4 -2 1 7 0
-4 -2 1 8 0
-4 -2 3 7 0
-4 -2 6 8 0
-4 -1 2 3 0
-4 1 5 7 0
-3 -2 4 8 0
-3 -2 5 7 0
-3 -1 5 8 0
-3 1 2 6 0
-2 -1 3 4 0
-2 -1 3 8 0
-1 2 3 6 0
-1 2 3 8 0
-1 2 5 6 0
1 2 5 7 0
1 3 4 5 0
1 3 5 7 0
2 3 6 7 0
